c uprop, v00.0, 
c reading from data/prog668.c.cnf
c done reading: 0.002972
p cnf 83 305
-35 -50 0
-37 -50 0
35 37 50 0
35 37 -55 0
-35 -37 -55 0
-35 37 55 0
35 -37 55 0
-41 50 0
-41 -42 0
41 42 -50 0
42 -45 -50 0
-42 -45 50 0
42 45 50 0
-42 45 -50 0
41 -49 0
-49 -51 0
-41 49 51 0
-41 51 -53 0
41 -51 -53 0
41 51 53 0
-41 -51 53 0
49 -54 0
-54 -56 0
-49 54 56 0
-36 -49 56 0
-36 49 -56 0
36 49 56 0
36 -49 -56 0
-34 54 0
-34 -39 0
34 39 -54 0
-33 39 -54 0
-33 -39 54 0
33 39 54 0
33 -39 -54 0
-32 34 0
-32 -43 0
32 -34 43 0
-31 -34 43 0
-31 34 -43 0
31 34 43 0
31 -34 -43 0
-30 32 0
-30 -47 0
30 -32 47 0
-29 -32 47 0
-29 32 -47 0
29 32 47 0
29 -32 -47 0
-28 37 0
-28 35 0
28 -35 -37 0
-27 -35 -37 0
-27 35 37 0
27 35 -37 0
27 -35 37 0
26 -37 -42 0
26 -28 -42 0
26 -28 -37 0
-26 37 42 0
-26 28 42 0
-26 28 37 0
-25 -26 42 0
-25 -26 37 0
-25 -26 28 0
25 26 -42 0
25 26 -37 0
25 26 -28 0
25 -28 -37 -42 0
-25 28 37 42 0
24 -42 -51 0
24 -26 -51 0
24 -26 -42 0
-24 42 51 0
-24 26 51 0
-24 26 42 0
-23 -24 51 0
-23 -24 42 0
-23 -24 26 0
23 24 -51 0
23 24 -42 0
23 24 -26 0
23 -26 -42 -51 0
-23 26 42 51 0
22 -51 -56 0
22 -24 -56 0
22 -24 -51 0
-22 51 56 0
-22 24 56 0
-22 24 51 0
-22 56 -58 0
-22 51 -58 0
-22 24 -58 0
22 -56 58 0
22 -51 58 0
22 -24 58 0
-24 -51 -56 58 0
24 51 56 -58 0
-39 -56 59 0
-22 -39 59 0
-22 -56 59 0
39 56 -59 0
22 39 -59 0
22 56 -59 0
-39 59 0
-56 59 0
-22 59 0
-22 -39 -56 0
-39 -43 60 0
-43 -59 60 0
-39 -59 60 0
39 43 -60 0
43 59 -60 0
39 59 -60 0
-43 60 0
-39 60 0
-59 60 0
-39 -43 -59 0
-43 -47 61 0
-47 -60 61 0
-43 -60 61 0
43 47 -61 0
47 60 -61 0
43 60 -61 0
-47 61 0
-43 61 0
-60 61 0
-43 -47 -60 0
-47 -61 0
-47 61 0
47 -61 0
-35 -52 0
-27 -52 0
27 35 52 0
27 35 -57 0
-27 -35 -57 0
27 -35 57 0
-27 35 57 0
-40 52 0
-25 -40 0
25 40 -52 0
25 -44 -52 0
-25 -44 52 0
25 44 52 0
-25 44 -52 0
40 -48 0
-23 -48 0
23 -40 48 0
23 -40 -62 0
-23 40 -62 0
23 40 62 0
-23 -40 62 0
48 -63 0
-58 -63 0
-48 58 63 0
-48 58 -64 0
48 -58 -64 0
48 58 64 0
-48 -58 64 0
63 -66 0
-63 66 0
-63 -69 0
63 69 0
66 -71 0
-66 71 0
-66 -73 0
66 73 0
71 -74 0
-71 74 0
-71 -75 0
71 75 0
74 -76 0
-74 76 0
-74 -77 0
74 77 0
76 -78 0
-76 78 0
-76 -79 0
76 79 0
-65 -80 0
65 80 0
-68 -81 0
68 81 0
-70 -82 0
70 82 0
-72 -83 0
72 83 0
-20 -21 0
20 21 0
-18 -19 0
18 19 0
-17 68 0
17 -68 0
-16 -68 0
16 68 0
15 -70 0
15 -17 -70 0
15 -17 0
-15 17 70 0
-14 -15 70 0
-14 -15 17 0
14 15 -70 0
14 15 0
14 15 -17 0
14 -17 -70 0
13 -65 -72 0
13 -15 -72 0
13 -15 -65 0
-13 65 72 0
-13 15 72 0
-13 15 65 0
-12 -13 72 0
-12 -13 65 0
-12 -13 15 0
12 13 -72 0
12 13 -65 0
12 13 -15 0
12 -15 -65 -72 0
-12 15 65 72 0
11 -21 -68 0
11 -13 -21 0
11 -13 -68 0
-11 21 68 0
-11 13 21 0
-11 13 68 0
-10 -11 21 0
-10 -11 68 0
-10 -11 13 0
10 11 -21 0
10 11 -68 0
10 11 -13 0
10 -13 -21 -68 0
-10 13 21 68 0
9 -19 -70 0
9 -11 -19 0
9 -11 -70 0
-9 19 70 0
-9 11 19 0
-9 11 70 0
9 -19 0
9 -70 0
9 -11 0
-11 -19 -70 0
-8 72 0
-8 9 0
8 -9 -72 0
9 -72 0
-9 72 0
-7 21 0
-7 8 0
7 -8 -21 0
8 -21 0
-8 21 0
-7 -19 0
7 -19 0
-7 19 0
-6 -65 0
6 65 0
-5 -16 0
5 16 0
-4 -14 0
4 14 0
-3 -12 0
3 12 0
-2 -10 0
2 10 0
35 -38 0
-38 65 0
-35 38 -65 0
-35 -65 0
35 65 0
-16 -27 46 0
-27 -38 46 0
-16 -38 46 0
16 27 -46 0
27 38 -46 0
16 38 -46 0
-27 46 0
-16 46 0
-38 46 0
-16 -27 -38 0
1 -14 -25 0
1 -25 -46 0
1 -14 -46 0
-1 14 25 0
-1 25 46 0
-1 14 46 0
1 -25 0
1 -14 0
1 -46 0
-14 -25 -46 0
-12 -23 67 0
-1 -23 67 0
-1 -12 67 0
12 23 -67 0
1 23 -67 0
1 12 -67 0
-23 67 0
-12 67 0
-1 67 0
-1 -12 -23 0
-10 -58 0
-58 -67 0
-10 -67 0
10 58 67 0
